; benchmark generated from python API
(set-info :status unknown)
(declare-fun W_S1_V6 () Bool)
(declare-fun W_S1_V4 () Bool)
(declare-fun W_S1_V2 () Bool)
(declare-fun W_S1_V3 () Bool)
(declare-fun W_S1_V1 () Bool)
(declare-fun R_E2_V1 () Bool)
(declare-fun R_E2_V3 () Bool)
(declare-fun R_E1_V3 () Bool)
(declare-fun R_E1_V1 () Bool)
(declare-fun R_E1_V6 () Bool)
(declare-fun R_E1_V4 () Bool)
(declare-fun R_E1_V5 () Bool)
(declare-fun R_E1_V2 () Bool)
(declare-fun DISJ_W_S1_R_E1 () Bool)
(declare-fun R_S1_V6 () Bool)
(declare-fun R_S1_V4 () Bool)
(declare-fun R_S1_V5 () Bool)
(declare-fun R_S1_V2 () Bool)
(declare-fun R_S1_V3 () Bool)
(declare-fun R_S1_V1 () Bool)
(declare-fun DISJ_W_S1_R_S1 () Bool)
(declare-fun R_E2_V6 () Bool)
(declare-fun R_E2_V4 () Bool)
(declare-fun R_E2_V5 () Bool)
(declare-fun R_E2_V2 () Bool)
(declare-fun DISJ_W_S1_R_E2 () Bool)
(declare-fun W_S1_V5 () Bool)
(assert
 (let (($x140 (forall ((V1_0 Int) )(forall ((V3_0 Int) )(forall ((V2_0 Int) )(forall ((V5_0 Int) )(forall ((V4_0 Int) )(forall ((V6_0 Int) )(forall ((MW_S1_V1 Bool) )(forall ((MW_S1_V3 Bool) )(forall ((MW_S1_V2 Bool) )(forall ((MW_S1_V5 Bool) )(forall ((MW_S1_V4 Bool) )(forall ((MW_S1_V6 Bool) )(forall ((S1_V1_!5000 Int) )(forall ((S1_V3_!5001 Int) )(forall ((S1_V2_!5002 Int) )(forall ((E1_!4994 Int) )(forall ((E1_!4997 Int) )(forall ((E1_!4999 Int) )(forall ((S1_V5_!5003 Int) )(forall ((E2_!4995 Int) )(forall ((E2_!4996 Int) )(forall ((E2_!4998 Int) )(forall ((S1_V4_!5004 Int) )(forall ((S1_V6_!5005 Int) )(let (($x2719 (= V6_0 (ite MW_S1_V6 S1_V6_!5005 V6_0))))
 (let ((?x4720 (ite MW_S1_V4 S1_V4_!5004 V4_0)))
 (let (($x1971 (= V4_0 ?x4720)))
 (let (($x997 (= V5_0 (ite MW_S1_V5 S1_V5_!5003 V5_0))))
 (let ((?x4691 (ite MW_S1_V2 S1_V2_!5002 V2_0)))
 (let (($x4278 (= V2_0 ?x4691)))
 (let ((?x1915 (ite MW_S1_V1 S1_V1_!5000 E1_!4999)))
 (let (($x5098 (= E1_!4994 ?x1915)))
 (let (($x2621 (and $x5098 (= E2_!4996 (+ 1 (ite MW_S1_V3 S1_V3_!5001 E2_!4998))) $x4278 $x997 $x1971 $x2719)))
 (let (($x1720 (and (not (<= V4_0 E2_!4995)) (not (<= V2_0 E1_!4994)) (>= E2_!4996 V4_0) (>= E1_!4994 (+ (- 1) V2_0)) (not (<= V2_0 E1_!4997)) (not (<= V4_0 E2_!4998)) (not (<= V2_0 E1_!4999)) (>= ?x1915 (+ (- 1) ?x4691)) (>= (ite MW_S1_V3 S1_V3_!5001 E2_!4998) (+ (- 1) ?x4720)))))
 (let (($x4201 (not MW_S1_V4)))
 (let (($x2370 (or $x4201 W_S1_V4)))
 (let (($x3214 (= E2_!4998 E2_!4995)))
 (let (($x3609 (or (not (or (not R_E2_V1) (= E1_!4997 E1_!4994))) $x3214)))
 (let (($x3141 (= E2_!4996 E2_!4998)))
 (let (($x2698 (not R_E2_V3)))
 (let (($x2080 (or $x2698 (= E2_!4995 V3_0))))
 (let (($x1042 (or (not (and (or (not R_E2_V1) (= E1_!4994 E1_!4997)) $x2080)) $x3141)))
 (let (($x6035 (or (not $x2080) (= E2_!4996 E2_!4995))))
 (let (($x24 (not R_E1_V3)))
 (let (($x5968 (or $x24 (= E2_!4998 V3_0))))
 (let (($x4992 (not (and (or (not R_E1_V1) (= E1_!4997 V1_0)) $x5968))))
 (let (($x6050 (or $x4992 (= E1_!4999 E1_!4997))))
 (let (($x3222 (= E1_!4999 E1_!4994)))
 (let (($x1746 (or $x4992 $x3222)))
 (let (($x843 (= E1_!4994 E1_!4997)))
 (let (($x664 (and $x843 $x1746 $x6050 $x6035 $x1042 $x3609 (or (not MW_S1_V1) W_S1_V1) (or (not MW_S1_V3) W_S1_V3) (or (not MW_S1_V2) W_S1_V2) $x2370 (or (not MW_S1_V6) W_S1_V6))))
 (or (not $x664) (not $x1720) $x2621)))))))))))))))))))))))))))))
 )
 )
 )
 )
 )
 )
 )
 )
 )
 )
 )
 )
 )
 )
 )
 )
 )
 )
 )
 )
 )
 )
 )
 ))
 (let (($x3370 (and W_S1_V6 R_E1_V6)))
 (let (($x3637 (and W_S1_V4 R_E1_V4)))
 (let (($x3898 (and W_S1_V2 R_E1_V2)))
 (let (($x4825 (and W_S1_V3 R_E1_V3)))
 (let (($x1189 (and W_S1_V1 R_E1_V1)))
 (let (($x3487 (= DISJ_W_S1_R_E1 (not (or $x1189 $x4825 $x3898 R_E1_V5 $x3637 $x3370)))))
 (let (($x208 (and W_S1_V6 R_S1_V6)))
 (let (($x2104 (and W_S1_V4 R_S1_V4)))
 (let (($x3814 (and W_S1_V2 R_S1_V2)))
 (let (($x784 (and W_S1_V3 R_S1_V3)))
 (let (($x1905 (and W_S1_V1 R_S1_V1)))
 (let (($x4268 (= DISJ_W_S1_R_S1 (not (or $x1905 $x784 $x3814 R_S1_V5 $x2104 $x208)))))
 (let (($x3496 (and W_S1_V6 R_E2_V6)))
 (let (($x1979 (and W_S1_V4 R_E2_V4)))
 (let (($x5209 (and W_S1_V2 R_E2_V2)))
 (let (($x291 (and W_S1_V3 R_E2_V3)))
 (let (($x585 (and W_S1_V1 R_E2_V1)))
 (let (($x3410 (= DISJ_W_S1_R_E2 (not (or $x585 $x291 $x5209 R_E2_V5 $x1979 $x3496)))))
 (let (($x2698 (not R_E2_V3)))
 (let (($x24 (not R_E1_V3)))
 (let (($x5776 (not R_E1_V1)))
 (let (($x3012 (and $x5776 $x24)))
 (let (($x2594 (or $x3012 $x2698)))
 (and $x2594 W_S1_V5 $x3410 $x4268 $x3487 $x140))))))))))))))))))))))))))
(check-sat)
